7 8 9 10 11 14 15 16 17 18 19 20 568 569 570 474 473 472 471 495 494 524 525 493 492 491 490 486 487 534 488 489 532 533 231 230 229 228 227 186 188 187 178 177 171 170 172 109 108 173 174 175 176 540 538 539 537 536 535 485 484 483 482 481 480 479 478 477 476 475 567 26 27 29 28 25 24 21 13 12 23 22 31 30 32 36 37 38 35 33 34 560 561 562 563 565 566 564 549 548 551 550 559 558 557 556 41 40 39 42 43 44 47 48 49 54 55 56 53 52 50 51 84 83 82 85 86 87 90 92 91 46 45 555 554 553 552 101 102 100 99 98 96 95 97 94 93 89 88 77 78 79 80 81 57 58 59 60 61 63 62 64 76 75 74 73 119 118 120 121 122 123 71 72 65 66 67 68 70 69 124 125 126 127 128 129 130 116 115 117 106 105 104 103 547 546 545 544 543 541 542 107 110 111 114 112 113 131 132 133 134 135 136 137 138 139 140 141 151 150 149 152 148 147 142 143 144 146 145 158 157 153 156 159 155 154 165 164 166 167 163 160 161 162 168 169 180 181 179 182 183 185 184 194 195 196 197 198 199 200 201 202 204 203 208 207 206 205 209 210 211 212 213 214 215 216 217 223 222 221 220 218 219 193 192 191 190 189 226 225 224 232 233 531 530 529 528 234 235 236 237 240 239 238 246 247 245 244 243 242 241 248 249 250 251 252 254 253 255 256 257 300 258 259 260 261 262 263 264 266 265 299 298 297 296 295 294 267 271 272 269 268 270 293 291 292 273 274 275 276 277 290 289 288 278 279 282 281 280 287 286 285 284 283 334 335 336 337 338 339 333 332 331 330 340 341 343 344 345 346 364 363 362 347 348 349 350 351 415 416 414 413 352 353 354 355 357 358 359 361 360 401 400 399 406 405 404 403 402 356 412 411 410 418 417 419 420 421 422 423 427 426 424 425 382 386 385 383 384 409 408 407 397 398 370 369 368 365 367 366 342 329 328 327 326 325 324 323 322 321 320 319 317 318 305 306 304 303 301 302 508 507 506 516 515 517 514 513 509 510 511 512 527 526 523 522 521 520 518 519 497 496 470 469 468 467 466 465 464 463 462 461 452 453 499 500 501 498 502 503 504 505 307 308 309 310 311 451 312 313 316 314 315 377 378 380 379 376 375 374 373 372 371 396 395 394 393 391 392 390 388 387 389 381 445 444 443 442 446 447 448 449 450 441 440 439 431 428 429 430 432 433 434 435 436 437 438 454 455 456 457 458 459 460 571 572 573 0 1 2 3 4 5 6